Minimize

x_0 + x_1 + x_2 + x_3 + x_4 + x_5 + x_6 + x_7 + x_8


Subject To

a0: 19 x_0 + 23 x_1 + 29 x_2 + 31 x_3 + 37 x_4 + 41 x_5 + 43 x_6 + 47 x_7 + 51 x_8 = 1000



Bounds


x_0 <= 52
x_1 <= 43
x_2 <= 34
x_3 <= 32
x_4 <= 27
x_5 <= 24
x_6 <= 23
x_7 <= 21
x_8 <= 19




General

 x_0 x_1 x_2 x_3 x_4 x_5 x_6 x_7 x_8



End
